
  21    0


   0  11 2 3 4 5 6 7 8 9 18 19 20 
   2   5 17 14 13 12 10 
   5   4 16 14 12 11 
  10   2 13 11 
   2   2 15 13 
   8   1 12 
   8   1 11 
   4   1 10 
   8   1 10 
   2   1 21
   3   1 21
   3   1 21
   4   1 21
   3   1 21
   5   1 21
  10   1 21
   5   1 21
   2   1 21
   8   1 21
   9   1 21
   0   0 
